100 8
624 588
679 389
523 793
848 38
359 833
810 622
700 769
634 802
608 446
255 660
786 187
425 489
424 273
504 556
235 372
853 85
406 225
773 826
809 517
300 272
677 404
304 263
672 904
644 457
722 360
672 241
690 41
325 712
97 541
748 500
637 757
215 417
363 169
669 794
688 361
843 169
443 475
385 800
354 266
234 591
701 901
642 552
762 662
662 130
769 507
408 243
491 417
739 785
249 672
226 580
361 374
620 653
538 884
735 591
564 499
834 14
379 280
638 167
281 605
623 220
215 323
572 228
836 609
504 403
837 795
695 544
658 651
193 535
709 620
826 935
343 133
480 453
713 307
759 306
394 233
797 35
799 945
659 777
751 625
661 624
588 573
166 560
673 545
370 355
532 936
589 399
250 716
251 640
683 292
708 163
390 539
306 819
430 113
279 725
556 111
597 92
435 378
365 103
863 55
730 799
